% Data file generated from RandomInstances/20_0.65_3.col DIMACS file
size = 20;

chi = 7;

adjacency = [|0,1,1,1,1,0,1,1,1,1,1,1,1,1,0,0,0,1,1,1,
|1,0,1,1,1,0,0,1,1,0,0,1,0,1,1,0,1,1,1,1,
|1,1,0,0,1,1,1,1,0,0,1,1,1,1,0,0,1,1,0,1,
|1,1,0,0,1,0,1,1,0,1,0,1,1,1,1,0,1,1,1,1,
|1,1,1,1,0,0,1,1,1,0,0,0,1,0,1,1,1,1,1,1,
|0,0,1,0,0,0,0,1,1,0,0,1,0,0,1,1,1,0,0,0,
|1,0,1,1,1,0,0,1,1,0,1,1,1,1,0,1,1,1,1,1,
|1,1,1,1,1,1,1,0,0,0,1,1,1,0,1,0,0,0,1,1,
|1,1,0,0,1,1,1,0,0,1,1,1,1,1,0,1,0,1,1,0,
|1,0,0,1,0,0,0,0,1,0,1,1,1,1,1,1,1,1,1,0,
|1,0,1,0,0,0,1,1,1,1,0,1,0,0,1,1,1,1,1,1,
|1,1,1,1,0,1,1,1,1,1,1,0,0,1,1,0,0,0,0,1,
|1,0,1,1,1,0,1,1,1,1,0,0,0,1,1,1,1,1,1,0,
|1,1,1,1,0,0,1,0,1,1,0,1,1,0,1,1,1,1,0,1,
|0,1,0,1,1,1,0,1,0,1,1,1,1,1,0,1,1,0,1,1,
|0,0,0,0,1,1,1,0,1,1,1,0,1,1,1,0,0,1,1,0,
|0,1,1,1,1,1,1,0,0,1,1,0,1,1,1,0,0,1,0,0,
|1,1,1,1,1,0,1,0,1,1,1,0,1,1,0,1,1,0,0,1,
|1,1,0,1,1,0,1,1,1,1,1,0,1,0,1,1,0,0,0,1,
|1,1,1,1,1,0,1,1,0,0,1,1,0,1,1,0,0,1,1,0,
|];